experiment/data/hgs-res/Vrp-Set-B-n64/Vrp-Set-B-n64-hgs/0.hgs1.vrp
NAME : 0
COMMENT : CVRP Instance
TYPE : CVRP
DIMENSION : 64
EDGE_WEIGHT_TYPE : EUC_2D
CAPACITY : 100
NODE_COORD_SECTION
1	59.0	73.0
2	79.0	65.0
3	73.0	27.0
4	41.0	81.0
5	11.0	93.0
6	13.0	89.0
7	11.0	15.0
8	71.0	81.0
9	77.0	89.0
10	41.0	87.0
11	44.0	94.0
12	51.0	101.0
13	42.0	92.0
14	58.0	104.0
15	14.0	94.0
16	18.0	90.0
17	60.0	102.0
18	72.0	86.0
19	45.0	95.0
20	20.0	90.0
21	74.0	32.0
22	78.0	90.0
23	18.0	98.0
24	78.0	36.0
25	16.0	90.0
26	78.0	36.0
27	80.0	74.0
28	78.0	92.0
29	52.0	108.0
30	49.0	97.0
31	72.0	82.0
32	72.0	88.0
33	42.0	82.0
34	50.0	92.0
35	82.0	94.0
36	16.0	94.0
37	18.0	94.0
38	42.0	88.0
39	78.0	94.0
40	80.0	32.0
41	84.0	96.0
42	76.0	82.0
43	78.0	30.0
44	88.0	68.0
45	18.0	20.0
46	18.0	20.0
47	74.0	82.0
48	47.0	95.0
49	18.0	94.0
50	86.0	68.0
51	45.0	95.0
52	14.0	102.0
53	82.0	66.0
54	14.0	16.0
55	76.0	86.0
56	18.0	102.0
57	58.0	106.0
58	76.0	34.0
59	18.0	18.0
60	14.0	96.0
61	18.0	94.0
62	46.0	96.0
63	82.0	70.0
64	76.0	28.0
DEMAND_SECTION
1	0
2	24
3	15
4	2
5	3
6	24
7	17
8	9
9	4
10	2
11	15
12	20
13	17
14	15
15	20
16	8
17	6
18	2
19	6
20	18
21	5
22	16
23	2
24	18
25	1
26	13
27	17
28	5
29	14
30	19
31	3
32	22
33	6
34	9
35	22
36	6
37	18
38	23
39	24
40	4
41	20
42	16
43	15
44	24
45	16
46	9
47	4
48	11
49	3
50	54
51	36
52	19
53	11
54	21
55	12
56	9
57	17
58	16
59	14
60	14
61	21
62	19
63	6
64	17
DEPOT_SECTION
1
-1
EOF
