experiment/data/hgs-res/Vrp-Set-B-n64/Vrp-Set-B-n64-hgs/0.hgs1.log
=========== Algorithm Parameters =================
---- nbGranular        is set to 20
---- mu                is set to 25
---- lambda            is set to 40
---- nbElite           is set to 4
---- nbClose           is set to 5
---- targetFeasible    is set to 0.2
---- seed              is set to 1234
---- nbIter            is set to 20000
---- timeLimit         is set to 0
---- useSwapStar       is set to 1
==================================================
----- READING INSTANCE: baseline_results/cvrp_hgs/Vrp-Set-B-n64/Vrp-Set-B-n64-hgs/0.hgs1.vrp
----- FLEET SIZE WAS NOT SPECIFIED: DEFAULT INITIALIZATION TO 15 VEHICLES
----- INSTANCE SUCCESSFULLY LOADED WITH 63 CLIENTS AND 15 VEHICLES
----- BUILDING INITIAL POPULATION
----- STARTING GENETIC ALGORITHM
It      0      2 | T(s) 0.08 | Feas 46 871.55 890.04 | Inf 60 829.97 832.17 | Div 0.31 0.24 | Feas 0.00 1.00 | Pen 2.42 0.85
It    500    345 | T(s) 0.30 | Feas 34 868.31 870.83 | Inf 63 854.12 854.85 | Div 0.26 0.15 | Feas 0.02 1.00 | Pen 6.03 0.38
It   1000    845 | T(s) 0.50 | Feas 55 868.31 868.89 | Inf 26 873.39 877.55 | Div 0.22 0.32 | Feas 0.09 1.00 | Pen 12.50 0.17
It   1500    349 | T(s) 0.69 | Feas 46 868.19 868.92 | Inf 63 869.05 869.34 | Div 0.22 0.17 | Feas 0.11 1.00 | Pen 11.06 0.10
It   2000    849 | T(s) 0.88 | Feas 29 868.19 869.49 | Inf 60 870.39 870.70 | Div 0.26 0.19 | Feas 0.08 1.00 | Pen 11.50 0.10
It   2500   1349 | T(s) 1.05 | Feas 41 868.19 868.76 | Inf 61 866.40 867.20 | Div 0.22 0.22 | Feas 0.77 1.00 | Pen 10.17 0.10
It   3000   1849 | T(s) 1.23 | Feas 36 868.19 870.28 | Inf 46 862.87 863.63 | Div 0.28 0.23 | Feas 0.47 1.00 | Pen 9.00 0.10
It   3500   2349 | T(s) 1.40 | Feas 60 868.19 868.51 | Inf 39 869.57 870.06 | Div 0.19 0.21 | Feas 0.10 1.00 | Pen 11.23 0.10
It   4000   2849 | T(s) 1.59 | Feas 40 868.19 868.63 | Inf 27 870.94 871.73 | Div 0.21 0.25 | Feas 0.08 1.00 | Pen 11.69 0.10
It   4500   3349 | T(s) 1.77 | Feas 26 868.19 873.34 | Inf 58 872.35 872.71 | Div 0.34 0.19 | Feas 0.01 1.00 | Pen 12.16 0.10
It   5000   3849 | T(s) 1.95 | Feas 65 868.19 868.37 | Inf 33 868.13 869.27 | Div 0.17 0.25 | Feas 0.14 1.00 | Pen 10.75 0.10
It   5500   4349 | T(s) 2.13 | Feas 60 868.19 868.33 | Inf 29 864.40 865.79 | Div 0.15 0.26 | Feas 0.70 1.00 | Pen 9.51 0.10
It   6000   4849 | T(s) 2.31 | Feas 35 868.19 870.00 | Inf 55 871.49 872.24 | Div 0.27 0.21 | Feas 0.09 1.00 | Pen 11.87 0.10
It   6500   5349 | T(s) 2.50 | Feas 47 868.19 869.03 | Inf 64 867.37 867.83 | Div 0.23 0.20 | Feas 0.68 1.00 | Pen 10.50 0.10
It   7000   5849 | T(s) 2.68 | Feas 27 868.19 870.03 | Inf 56 863.73 865.06 | Div 0.28 0.23 | Feas 0.66 1.00 | Pen 9.28 0.10
It   7500   6349 | T(s) 2.87 | Feas 37 868.19 868.49 | Inf 61 864.85 866.09 | Div 0.20 0.23 | Feas 0.69 1.00 | Pen 9.66 0.10
It   8000   6849 | T(s) 3.04 | Feas 46 868.19 869.07 | Inf 45 866.03 866.63 | Div 0.23 0.21 | Feas 0.18 1.00 | Pen 10.05 0.10
It   8500   7349 | T(s) 3.23 | Feas 32 868.19 870.13 | Inf 63 873.52 873.84 | Div 0.27 0.17 | Feas 0.14 1.00 | Pen 12.55 0.10
It   9000   7849 | T(s) 3.40 | Feas 29 868.19 869.27 | Inf 52 863.62 864.06 | Div 0.26 0.20 | Feas 0.19 1.00 | Pen 9.25 0.10
It   9500   8349 | T(s) 3.58 | Feas 65 868.19 868.83 | Inf 54 870.51 871.26 | Div 0.21 0.21 | Feas 0.09 1.00 | Pen 11.54 0.10
It  10000   8849 | T(s) 3.76 | Feas 34 868.19 869.15 | Inf 58 866.50 867.69 | Div 0.24 0.23 | Feas 0.72 1.00 | Pen 10.21 0.10
It  10500   9349 | T(s) 3.95 | Feas 32 868.19 869.09 | Inf 55 873.36 873.71 | Div 0.24 0.19 | Feas 0.15 1.00 | Pen 12.49 0.10
It  11000   9849 | T(s) 4.13 | Feas 56 868.19 868.45 | Inf 62 869.03 869.24 | Div 0.17 0.16 | Feas 0.10 1.00 | Pen 11.05 0.10
It  11500  10349 | T(s) 4.30 | Feas 59 868.19 868.50 | Inf 30 865.19 866.72 | Div 0.18 0.26 | Feas 0.81 1.00 | Pen 9.77 0.10
It  12000  10849 | T(s) 4.49 | Feas 51 868.19 868.36 | Inf 35 871.76 872.13 | Div 0.16 0.19 | Feas 0.09 1.00 | Pen 11.96 0.10
It  12500  11349 | T(s) 4.66 | Feas 45 868.19 869.09 | Inf 43 867.61 868.85 | Div 0.24 0.23 | Feas 0.75 1.00 | Pen 10.58 0.10
It  13000  11849 | T(s) 4.85 | Feas 60 868.19 868.33 | Inf 34 863.94 866.73 | Div 0.16 0.28 | Feas 0.77 1.00 | Pen 9.35 0.10
It  13500  12349 | T(s) 5.03 | Feas 29 868.19 873.58 | Inf 30 870.91 871.76 | Div 0.31 0.23 | Feas 0.09 1.00 | Pen 11.68 0.10
It  14000  12849 | T(s) 5.20 | Feas 51 868.19 868.49 | Inf 56 866.86 867.65 | Div 0.18 0.21 | Feas 0.83 1.00 | Pen 10.33 0.10
It  14500  13349 | T(s) 5.38 | Feas 54 868.19 868.52 | Inf 46 863.28 863.55 | Div 0.19 0.18 | Feas 0.46 1.00 | Pen 9.13 0.10
It  15000  13849 | T(s) 5.56 | Feas 27 868.19 871.04 | Inf 36 870.08 870.77 | Div 0.30 0.22 | Feas 0.07 1.00 | Pen 11.40 0.10
It  15500  14349 | T(s) 5.74 | Feas 27 868.19 872.75 | Inf 44 866.13 867.71 | Div 0.32 0.25 | Feas 0.72 1.00 | Pen 10.08 0.10
It  16000  14849 | T(s) 5.92 | Feas 27 868.19 871.17 | Inf 42 862.63 863.73 | Div 0.30 0.24 | Feas 0.44 1.00 | Pen 8.92 0.10
It  16500  15349 | T(s) 6.11 | Feas 58 868.19 868.43 | Inf 49 869.28 869.58 | Div 0.16 0.19 | Feas 0.08 1.00 | Pen 11.13 0.10
It  17000  15849 | T(s) 6.28 | Feas 57 868.19 868.40 | Inf 63 865.41 865.78 | Div 0.18 0.19 | Feas 0.73 1.00 | Pen 9.84 0.10
It  17500  16349 | T(s) 6.47 | Feas 29 868.19 868.91 | Inf 59 872.75 872.92 | Div 0.24 0.16 | Feas 0.05 1.00 | Pen 12.29 0.10
It  18000  16849 | T(s) 6.65 | Feas 28 868.19 869.20 | Inf 53 868.49 868.81 | Div 0.25 0.19 | Feas 0.12 1.00 | Pen 10.87 0.10
It  18500  17349 | T(s) 6.84 | Feas 56 868.19 868.44 | Inf 26 864.72 866.73 | Div 0.18 0.29 | Feas 0.68 1.00 | Pen 9.61 0.10
It  19000  17849 | T(s) 7.02 | Feas 27 868.19 869.28 | Inf 63 871.88 872.10 | Div 0.25 0.16 | Feas 0.08 1.00 | Pen 12.00 0.10
It  19500  18349 | T(s) 7.19 | Feas 46 868.19 868.59 | Inf 63 867.72 868.06 | Div 0.20 0.19 | Feas 0.84 1.00 | Pen 10.61 0.10
It  20000  18849 | T(s) 7.36 | Feas 50 868.19 868.39 | Inf 43 864.04 865.13 | Div 0.17 0.23 | Feas 0.74 1.00 | Pen 9.39 0.10
It  20500  19349 | T(s) 7.55 | Feas 26 868.19 869.93 | Inf 54 871.03 871.31 | Div 0.27 0.18 | Feas 0.04 1.00 | Pen 11.72 0.10
It  21000  19849 | T(s) 7.74 | Feas 50 868.19 868.57 | Inf 36 872.45 872.86 | Div 0.20 0.20 | Feas 0.10 1.00 | Pen 12.19 0.10
----- GENETIC ALGORITHM FINISHED AFTER 21153 ITERATIONS. TIME SPENT: 7.79005
----- WRITING BEST SOLUTION IN : baseline_results/cvrp_hgs/Vrp-Set-B-n64/Vrp-Set-B-n64-hgs/0.hgs1.tour
