experiment/data/hgs-res/Vrp-Set-B-n64/Vrp-Set-B-n64-hgs/0.hgs1.tour
Route #1: 2 58 53 6 44 45 3 32
Route #2: 23 25 39 42 63 20 57
Route #3: 52 43 49 62
Route #4: 1 26 41 54 31 7
Route #5: 17 27 38 40 34 21 8 46 30
Route #6: 16 13 56 28 11 29 33
Route #7: 50 18 10 12 37
Route #8: 47 61 55 51 22 60 36
Route #9: 19 15 24 5 4 14 59 35 48 9
Cost 868.194
